
Gurobi 9.5.0 (linux64) logging started Tue Nov  7 13:23:04 2023

Set parameter LogFile to value "/lustre1/scratch/348/vsc34888/JointResearch/05.Models/06.Benchmarking/E.Representative_days_based_on_Line_Benefits_OptModel/3-bus_ByStages_nc100/openStarNet_3-bus_ByStages_nc100.log"
Set parameter Method to value 2
Set parameter MIPFocus to value 1
Set parameter Presolve to value 2
Set parameter RINS to value 100
Set parameter MIPGap to value 0.01
Set parameter Threads to value 36
Set parameter TimeLimit to value 604800
Set parameter IterationLimit to value 760000000
Gurobi Optimizer version 9.5.0 build v9.5.0rc5 (linux64)
Thread count: 36 physical cores, 36 logical processors, using up to 36 threads
Optimize a model with 6603 rows, 2981 columns and 19018 nonzeros
Model fingerprint: 0x2816c279
Variable types: 2972 continuous, 9 integer (9 binary)
Coefficient statistics:
  Matrix range     [7e-03, 8e+02]
  Objective range  [1e+00, 1e+00]
  Bounds range     [7e-06, 2e+00]
  RHS range        [7e-06, 1e+00]
Presolve removed 2403 rows and 704 columns
Presolve time: 0.01s
Presolved: 4200 rows, 2277 columns, 14868 nonzeros
Variable types: 2268 continuous, 9 integer (9 binary)
Found heuristic solution: objective 75.5332175
Root relaxation presolved: 4200 rows, 2277 columns, 14868 nonzeros

Root barrier log...

Ordering time: 0.00s

Barrier statistics:
 Dense cols : 9
 AA' NZ     : 3.720e+04
 Factor NZ  : 8.574e+04 (roughly 3 MB of memory)
 Factor Ops : 1.922e+06 (less than 1 second per iteration)
 Threads    : 36

                  Objective                Residual
Iter       Primal          Dual         Primal    Dual     Compl     Time
   0   3.81605817e+05 -1.45736532e+08  1.53e+01 1.23e+02  2.73e+04     0s
   1   2.48762034e+04 -2.92232565e+06  1.02e+00 1.81e-09  8.92e+02     0s
   2   2.85492570e+03 -1.16647921e+06  4.80e-02 3.29e-09  1.58e+02     0s
   3   1.81759535e+03 -2.33873125e+04  8.12e-04 4.05e-10  3.10e+00     0s
   4   3.62344744e+02 -5.10960886e+03  1.82e-05 8.19e-11  6.71e-01     0s
   5   2.16796221e+02 -1.65195422e+03  5.37e-06 2.43e-11  2.29e-01     0s
   6   1.55462938e+02 -5.88244197e+02  2.38e-06 8.11e-12  9.12e-02     0s
   7   1.02954241e+02 -1.84112896e+02  8.10e-07 2.83e-12  3.52e-02     0s
   8   8.03011556e+01  2.59894267e+01  1.55e-07 9.09e-13  6.66e-03     0s
   9   6.88141754e+01  5.89204033e+01  8.02e-09 9.09e-13  1.21e-03     0s
  10   6.74058700e+01  6.35942661e+01  4.72e-09 1.82e-12  4.67e-04     0s
  11   6.72048290e+01  6.46729337e+01  3.76e-09 9.09e-13  3.11e-04     0s
  12   6.66518614e+01  6.48192094e+01  5.81e-10 9.09e-13  2.25e-04     0s
  13   6.64926684e+01  6.53289723e+01  5.23e-10 9.09e-13  1.43e-04     0s
  14   6.64501282e+01  6.53717689e+01  4.28e-10 9.09e-13  1.32e-04     0s
  15   6.64099576e+01  6.54209677e+01  3.40e-10 9.09e-13  1.21e-04     0s
  16   6.63115355e+01  6.55404309e+01  1.56e-10 9.09e-13  9.46e-05     0s
  17   6.63012832e+01  6.59391089e+01  1.28e-10 9.09e-13  4.44e-05     0s
  18   6.62527229e+01  6.61673434e+01  3.08e-11 1.82e-12  1.05e-05     0s
  19   6.62407175e+01  6.62058900e+01  1.04e-11 9.09e-13  4.27e-06     0s
  20   6.62359879e+01  6.62236998e+01  3.25e-12 9.09e-13  1.51e-06     0s
  21   6.62338840e+01  6.62337520e+01  1.37e-12 9.09e-13  1.62e-08     0s
  22   6.62338215e+01  6.62338214e+01  3.59e-09 9.09e-13  1.62e-11     0s

Barrier solved model in 22 iterations and 0.14 seconds (0.08 work units)
Optimal objective 6.62338215e+01


Root relaxation: objective 6.623382e+01, 405 iterations, 0.13 seconds (0.06 work units)

    Nodes    |    Current Node    |     Objective Bounds      |     Work
 Expl Unexpl |  Obj  Depth IntInf | Incumbent    BestBd   Gap | It/Node Time

     0     0   66.23382    0    3   75.53322   66.23382  12.3%     -    0s
H    0     0                      66.6124140   66.25986  0.53%     -    0s
H    0     0                      66.5257038   66.25986  0.40%     -    0s
     0     0   66.25986    0    1   66.52570   66.25986  0.40%     -    0s

Cutting planes:
  MIR: 109

Explored 1 nodes (850 simplex iterations) in 0.23 seconds (0.13 work units)
Thread count was 36 (of 36 available processors)

Solution count 3: 66.5257 66.6124 75.5332 

Optimal solution found (tolerance 1.00e-02)
Best objective 6.652570384914e+01, best bound 6.625986146279e+01, gap 0.3996%

Gurobi 9.5.0 (linux64) logging started Tue Nov  7 13:23:05 2023

Set parameter LogFile to value "/lustre1/scratch/348/vsc34888/JointResearch/05.Models/06.Benchmarking/E.Representative_days_based_on_Line_Benefits_OptModel/3-bus_ByStages_nc100/openStarNet_3-bus_ByStages_nc100.log"
Set parameter Method to value 2
Set parameter MIPFocus to value 1
Set parameter Presolve to value 2
Set parameter RINS to value 100
Set parameter MIPGap to value 0.01
Set parameter Threads to value 36
Set parameter TimeLimit to value 604800
Set parameter IterationLimit to value 760000000
No parameters matching 'relax_integrality' found
Gurobi Optimizer version 9.5.0 build v9.5.0rc5 (linux64)
Thread count: 36 physical cores, 36 logical processors, using up to 36 threads
Optimize a model with 6603 rows, 2972 columns and 15409 nonzeros
Model fingerprint: 0x9a5e3e62
Coefficient statistics:
  Matrix range     [7e-03, 8e+02]
  Objective range  [1e+00, 1e+00]
  Bounds range     [7e-06, 2e+00]
  RHS range        [7e-06, 1e+00]
Presolve removed 5903 rows and 1706 columns
Presolve time: 0.01s
Presolved: 700 rows, 1266 columns, 2566 nonzeros

Ordering time: 0.00s

Barrier statistics:
 AA' NZ     : 1.700e+03
 Factor NZ  : 2.800e+03 (roughly 1 MB of memory)
 Factor Ops : 1.400e+04 (less than 1 second per iteration)
 Threads    : 1

                  Objective                Residual
Iter       Primal          Dual         Primal    Dual     Compl     Time
   0   4.40925347e+05 -1.42443648e+08  3.91e+01 3.45e+02  8.45e+04     0s
   1   1.41107295e+04 -2.37232827e+06  1.68e+00 3.99e-12  1.82e+03     0s
   2   1.60481089e+03 -2.65025953e+05  7.39e-03 8.19e-12  1.08e+02     0s
   3   1.01790050e+03 -6.99514760e+03  1.26e-04 2.60e-12  3.17e+00     0s
   4   3.05152182e+02 -2.86054008e+03  5.72e-06 1.82e-12  1.25e+00     0s
   5   1.68280890e+02 -9.56045384e+02  7.51e-07 9.09e-13  4.44e-01     0s
   6   1.21753988e+02 -3.55662175e+02  1.10e-07 4.55e-13  1.89e-01     0s
   7   9.24473475e+01 -9.54346701e+01  1.11e-08 8.17e-13  7.42e-02     0s
   8   7.26784295e+01  2.64347856e+01  6.97e-10 1.47e-12  1.83e-02     0s
   9   6.74523291e+01  5.87578996e+01  1.13e-10 9.09e-13  3.43e-03     0s
  10   6.66608176e+01  6.56822168e+01  9.21e-10 4.55e-13  3.86e-04     0s
  11   6.65381041e+01  6.63477298e+01  2.17e-09 4.55e-13  7.52e-05     0s
  12   6.65261330e+01  6.65070569e+01  2.81e-09 4.55e-13  7.53e-06     0s
  13   6.65257449e+01  6.65225762e+01  2.75e-09 9.09e-13  1.25e-06     0s
  14   6.65257098e+01  6.65256804e+01  9.53e-10 1.82e-12  1.16e-08     0s
  15   6.65257038e+01  6.65257038e+01  4.85e-09 9.09e-13  1.16e-11     0s

Barrier solved model in 15 iterations and 0.01 seconds (0.01 work units)
Optimal objective 6.65257038e+01

Crossover log...

      10 DPushes remaining with DInf 0.0000000e+00                 0s
       0 DPushes remaining with DInf 0.0000000e+00                 0s

     100 PPushes remaining with PInf 0.0000000e+00                 0s
       0 PPushes remaining with PInf 0.0000000e+00                 0s

  Push phase complete: Pinf 0.0000000e+00, Dinf 9.3813846e-14      0s

Iteration    Objective       Primal Inf.    Dual Inf.      Time
     113    6.6525704e+01   0.000000e+00   0.000000e+00      0s

Solved in 113 iterations and 0.01 seconds (0.01 work units)
Optimal objective  6.652570385e+01

Gurobi 9.5.0 (linux64) logging started Thu Nov 16 15:40:04 2023

Set parameter LogFile to value "/lustre1/scratch/348/vsc34888/JointResearch/05.Models/06.Benchmarking/E.Representative_days_based_on_Line_Benefits_OptModel/3-bus_ByStages_nc100/openStarNet_3-bus_ByStages_nc100.log"
Set parameter Method to value 2
Set parameter MIPFocus to value 1
Set parameter Presolve to value 2
Set parameter RINS to value 100
Set parameter MIPGap to value 0.01
Set parameter Threads to value 36
Set parameter TimeLimit to value 604800
Set parameter IterationLimit to value 760000000
Gurobi Optimizer version 9.5.0 build v9.5.0rc5 (linux64)
Thread count: 36 physical cores, 36 logical processors, using up to 36 threads
Optimize a model with 6669 rows, 3012 columns and 19212 nonzeros
Model fingerprint: 0x4a456e51
Variable types: 3003 continuous, 9 integer (9 binary)
Coefficient statistics:
  Matrix range     [5e-03, 8e+02]
  Objective range  [1e+00, 1e+00]
  Bounds range     [9e-06, 2e+00]
  RHS range        [9e-06, 1e+00]
Presolve removed 2427 rows and 711 columns
Presolve time: 0.02s
Presolved: 4242 rows, 2301 columns, 15018 nonzeros
Variable types: 2292 continuous, 9 integer (9 binary)
Found heuristic solution: objective 75.1117422
Root relaxation presolved: 4242 rows, 2301 columns, 15018 nonzeros

Root barrier log...

Ordering time: 0.00s

Barrier statistics:
 Dense cols : 9
 AA' NZ     : 3.757e+04
 Factor NZ  : 8.660e+04 (roughly 3 MB of memory)
 Factor Ops : 1.941e+06 (less than 1 second per iteration)
 Threads    : 36

                  Objective                Residual
Iter       Primal          Dual         Primal    Dual     Compl     Time
   0   3.84747315e+05 -1.63667514e+08  1.53e+01 1.88e+02  3.05e+04     0s
   1   2.50100153e+04 -3.29163629e+06  1.03e+00 3.78e-09  9.99e+02     0s
   2   2.87450473e+03 -1.32917086e+06  4.98e-02 3.50e-09  1.78e+02     0s
   3   1.82141261e+03 -2.67729606e+04  9.53e-04 7.48e-10  3.48e+00     0s
   4   3.56587779e+02 -5.59256989e+03  3.16e-06 1.46e-10  7.22e-01     0s
   5   2.01113763e+02 -1.74237921e+03  7.06e-07 4.26e-11  2.36e-01     0s
   6   1.55760242e+02 -3.94821429e+02  3.67e-07 9.51e-12  6.68e-02     0s
   7   1.01017786e+02 -6.08536713e+01  1.20e-07 2.18e-12  1.96e-02     0s
   8   7.76499028e+01  4.38766608e+01  2.13e-08 9.09e-13  4.10e-03     0s
   9   6.83054202e+01  6.15488730e+01  3.85e-09 9.09e-13  8.20e-04     0s
  10   6.71852801e+01  6.41287310e+01  2.53e-09 1.82e-12  3.71e-04     0s
  11   6.68269728e+01  6.51994730e+01  1.63e-09 1.82e-12  1.98e-04     0s
  12   6.63388175e+01  6.51556890e+01  9.45e-10 1.82e-12  1.44e-04     0s
  13   6.59398383e+01  6.56475617e+01  2.01e-10 9.09e-13  3.55e-05     0s
  14   6.58062193e+01  6.57485021e+01  4.51e-11 9.09e-13  7.01e-06     0s
  15   6.57643380e+01  6.57619878e+01  1.97e-10 1.82e-12  2.85e-07     0s
  16   6.57634318e+01  6.57634294e+01  1.64e-11 9.09e-13  2.86e-10     0s
  17   6.57634309e+01  6.57634309e+01  1.80e-09 9.09e-13  2.86e-13     0s

Barrier solved model in 17 iterations and 0.16 seconds (0.07 work units)
Optimal objective 6.57634309e+01


Root relaxation: objective 6.576343e+01, 409 iterations, 0.12 seconds (0.05 work units)

    Nodes    |    Current Node    |     Objective Bounds      |     Work
 Expl Unexpl |  Obj  Depth IntInf | Incumbent    BestBd   Gap | It/Node Time

     0     0   65.76343    0    3   75.11174   65.76343  12.4%     -    0s
H    0     0                      66.1832811   65.76343  0.63%     -    0s
     0     0   65.76343    0    2   66.18328   65.76343  0.63%     -    0s

Cutting planes:
  MIR: 78

Explored 1 nodes (795 simplex iterations) in 0.23 seconds (0.12 work units)
Thread count was 36 (of 36 available processors)

Solution count 2: 66.1833 75.1117 

Optimal solution found (tolerance 1.00e-02)
Best objective 6.618328112354e+01, best bound 6.576343085304e+01, gap 0.6344%

Gurobi 9.5.0 (linux64) logging started Thu Nov 16 15:40:05 2023

Set parameter LogFile to value "/lustre1/scratch/348/vsc34888/JointResearch/05.Models/06.Benchmarking/E.Representative_days_based_on_Line_Benefits_OptModel/3-bus_ByStages_nc100/openStarNet_3-bus_ByStages_nc100.log"
Set parameter Method to value 2
Set parameter MIPFocus to value 1
Set parameter Presolve to value 2
Set parameter RINS to value 100
Set parameter MIPGap to value 0.01
Set parameter Threads to value 36
Set parameter TimeLimit to value 604800
Set parameter IterationLimit to value 760000000
No parameters matching 'relax_integrality' found
Gurobi Optimizer version 9.5.0 build v9.5.0rc5 (linux64)
Thread count: 36 physical cores, 36 logical processors, using up to 36 threads
Optimize a model with 6669 rows, 3003 columns and 15567 nonzeros
Model fingerprint: 0x7e23468a
Coefficient statistics:
  Matrix range     [5e-03, 8e+02]
  Objective range  [1e+00, 1e+00]
  Bounds range     [9e-06, 2e+00]
  RHS range        [9e-06, 2e+00]
Presolve removed 5962 rows and 1620 columns
Presolve time: 0.01s
Presolved: 707 rows, 1383 columns, 2696 nonzeros

Ordering time: 0.00s

Barrier statistics:
 AA' NZ     : 1.717e+03
 Factor NZ  : 2.828e+03 (roughly 1 MB of memory)
 Factor Ops : 1.414e+04 (less than 1 second per iteration)
 Threads    : 1

                  Objective                Residual
Iter       Primal          Dual         Primal    Dual     Compl     Time
   0   7.62683980e+05 -1.64110685e+08  3.45e+01 6.08e+02  8.93e+04     0s
   1   4.21915434e+04 -2.43308668e+06  2.32e+00 4.21e-12  2.41e+03     0s
   2   2.69102179e+03 -4.21704049e+05  3.22e-02 1.00e-11  1.69e+02     0s
   3   1.60115803e+03 -1.05074927e+04  4.00e-04 2.73e-12  4.39e+00     0s
   4   5.00343563e+02 -4.71789135e+03  2.77e-05 1.82e-12  1.89e+00     0s
   5   3.00269921e+02 -1.86594140e+03  7.67e-06 9.90e-13  7.83e-01     0s
   6   1.82092261e+02 -5.72528617e+02  1.70e-06 9.90e-13  2.73e-01     0s
   7   1.36731848e+02 -1.57608662e+02  6.44e-07 9.09e-13  1.06e-01     0s
   8   8.74763921e+01  4.28908482e+00  1.37e-07 9.09e-13  3.01e-02     0s
   9   6.97291267e+01  5.71740977e+01  1.37e-08 1.82e-12  4.54e-03     0s
  10   6.67310799e+01  6.51913911e+01  1.23e-09 9.09e-13  5.57e-04     0s
  11   6.62204249e+01  6.60201950e+01  1.87e-10 9.09e-13  7.24e-05     0s
  12   6.61835513e+01  6.61625079e+01  8.16e-11 1.82e-12  7.61e-06     0s
  13   6.61833060e+01  6.61805311e+01  6.34e-11 9.09e-13  1.00e-06     0s
  14   6.61832844e+01  6.61832694e+01  1.34e-10 1.82e-12  5.42e-09     0s
  15   6.61832811e+01  6.61832811e+01  1.25e-11 9.09e-13  5.42e-12     0s

Barrier solved model in 15 iterations and 0.01 seconds (0.01 work units)
Optimal objective 6.61832811e+01

Crossover log...

       0 DPushes remaining with DInf 0.0000000e+00                 0s

     101 PPushes remaining with PInf 0.0000000e+00                 0s
       0 PPushes remaining with PInf 0.0000000e+00                 0s

  Push phase complete: Pinf 0.0000000e+00, Dinf 1.6642243e-13      0s

Iteration    Objective       Primal Inf.    Dual Inf.      Time
     104    6.6183281e+01   0.000000e+00   0.000000e+00      0s

Solved in 104 iterations and 0.01 seconds (0.01 work units)
Optimal objective  6.618328112e+01
